units		lj
atom_style	bond
special_bonds fene

neighbor 0.4 bin
neigh_modify every 1 delay 1 check yes

read_restart restartn40.200000

pair_style	lj/expand 2.5
pair_coeff	1 1 1.0 1.0 0.0 2.5

bond_style fene
bond_coeff 1 30.0 1.5 1.0 1.0

fix 1 all nve
fix 2 all langevin 1.0 1.0 2.0 48279

timestep 0.001
thermo_style multi
thermo 10000

#dump 20 all custom 200 n40run.lammpstrj id xu yu zu
#dump_modify 20 sort id

restart  200000 restartn40run1
run      200000

